GLPSOL: GLPK LP/MIP Solver, v4.65
Parameter(s) specified in the command line:
 --model solver_drone.mod --data solver_drone_data_10.dat --output solver_drone_solution_10_8.log
 --log solver_drone_cmd_output_10_8.log --tmlim 45
Reading model section from solver_drone.mod...
41 lines were read
Reading data section from solver_drone_data_10.dat...
37 lines were read
Generating f...
Generating package_deliverd_once...
Generating package_well_delivered...
Generating time_spent_flying...
Generating autonomy_not_exceeded...
Generating check_time_max...
Model has been successfully generated
GLPK Integer Optimizer, v4.65
1367 rows, 1329 columns, 4105 non-zeros
1329 integer variables, 1320 of which are binary
Preprocessing...
46 rows, 1329 columns, 2784 non-zeros
1329 integer variables, 1320 of which are binary
Scaling...
 A: min|aij| =  1.000e+00  max|aij| =  1.544e+03  ratio =  1.544e+03
GM: min|aij| =  5.566e-01  max|aij| =  1.797e+00  ratio =  3.228e+00
EQ: min|aij| =  3.098e-01  max|aij| =  1.000e+00  ratio =  3.228e+00
2N: min|aij| =  2.969e-01  max|aij| =  1.516e+00  ratio =  5.105e+00
Constructing initial basis...
Size of triangular part is 46
Solving LP relaxation...
GLPK Simplex Optimizer, v4.65
46 rows, 1329 columns, 2784 non-zeros
      0: obj =   0.000000000e+00 inf =   3.524e+02 (1)
     53: obj =   1.409500000e+03 inf =   2.238e-14 (0)
*    58: obj =   1.409500000e+03 inf =   1.355e-14 (0)
OPTIMAL LP SOLUTION FOUND
Integer optimization begins...
Long-step dual simplex will be used
+    58: mip =     not found yet >=              -inf        (1; 0)
+   823: >>>>>   1.616000000e+03 >=   1.410000000e+03  12.7% (54; 0)
+  1296: >>>>>   1.612000000e+03 >=   1.410000000e+03  12.5% (55; 63)
+ 56213: mip =   1.612000000e+03 >=   1.410000000e+03  12.5% (2664; 613)
+108847: mip =   1.612000000e+03 >=   1.410000000e+03  12.5% (5238; 1204)
+162423: mip =   1.612000000e+03 >=   1.410000000e+03  12.5% (7472; 1906)
+211318: mip =   1.612000000e+03 >=   1.410000000e+03  12.5% (9757; 2460)
+259162: mip =   1.612000000e+03 >=   1.410000000e+03  12.5% (12420; 2898)
+295833: mip =   1.612000000e+03 >=   1.414000000e+03  12.3% (14827; 3385)
+330444: mip =   1.612000000e+03 >=   1.414000000e+03  12.3% (16877; 3958)
+363170: mip =   1.612000000e+03 >=   1.414000000e+03  12.3% (18747; 4500)
+390643: mip =   1.612000000e+03 >=   1.414000000e+03  12.3% (20314; 5054)
TIME LIMIT EXCEEDED; SEARCH TERMINATED
Time used:   45.0 secs
Memory used: 112.7 Mb (118136202 bytes)
The package 1 is delivered by the drone 6 to the house 1
The package 2 is delivered by the drone 3 to the house 1
The package 3 is delivered by the drone 3 to the house 1
The package 4 is delivered by the drone 4 to the house 2
The package 5 is delivered by the drone 6 to the house 2
The package 6 is delivered by the drone 5 to the house 2
The package 7 is delivered by the drone 7 to the house 3
The package 8 is delivered by the drone 1 to the house 4
The package 9 is delivered by the drone 2 to the house 6
The package 10 is delivered by the drone 7 to the house 7
The package 11 is delivered by the drone 5 to the house 8
The package 12 is delivered by the drone 4 to the house 8
The package 13 is delivered by the drone 2 to the house 9
The package 14 is delivered by the drone 1 to the house 10
The package 15 is delivered by the drone 8 to the house 10
Model has been successfully processed
Writing MIP solution to 'solver_drone_solution_10_8.log'...
